61 98 
75 79 
9 23 
12 27 
68 62 
86 10 
58 40 
60 38 
97 61 
15 38 
3 4 
67 12 
9 90 
89 8 
98 37 
24 12 
87 99 
91 96 
22 55 
24 91 
69 62 
53 80 
54 13 
18 52 
27 86 
42 30 
90 10 
42 51 
52 31 
59 51 
20 35 
15 7 
35 6 
3 57 
13 79 
0 83 
42 53 
63 48 
19 33 
0 46 
71 95 
76 61 
5 70 
64 57 
53 23 
60 73 
59 75 
32 46 
33 87 
55 47 
